data;
param n:=100;
param w:=1 280 2 386 3 -42 4 100 5 216 6 24 7 -359 8 -71 9 407 10 21 11 107 12 477 13 -304 14 301 15 -241 16 -139 17 84 18 -75 19 70 20 -19 21 -311 22 -374 23 8 24 -414 25 3 26 -468 27 80 28 351 29 -238 30 46 31 -226 32 -196 33 404 34 384 35 -256 36 37 37 -193 38 -408 39 -332 40 -444 41 128 42 208 43 -214 44 -365 45 -193 46 195 47 113 48 -90 49 202 50 -263 51 238 52 -240 53 202 54 -503 55 -263 56 439 57 199 58 -286 59 -209 60 -202 61 319 62 -440 63 -38 64 235 65 327 66 466 67 459 68 298 69 240 70 -462 71 422 72 392 73 -219 74 135 75 -504 76 258 77 -53 78 -265 79 -65 80 475 81 -478 82 -141 83 302 84 231 85 -430 86 -393 87 -408 88 38 89 326 90 399 91 334 92 -321 93 246 94 176 95 -203 96 37 97 486 98 379 99 -142 100 -190;
